32      4       
10      10      10      10      
0       0       0       0       0       5       2       3       6       8       9       
7       1       0       1       1       3       4       16      17      
8       3       0       4       5       4       7       13      17      23      
7       5       1       0       6       1       5       
7       0       2       1       2       3       7       13      23      
4       0       5       2       5       2       7       13      
9       0       7       6       2       4       10      22      29      31      
10      4       4       3       0       6       14      15      17      23      29      31      
2       2       3       3       0       5       13      15      17      27      28      
9       0       4       4       3       4       11      27      28      30      
6       0       1       3       3       1       12      
7       5       1       7       0       2       15      25      
7       0       5       6       8       4       20      26      29      30      
6       0       2       5       8       4       19      25      26      27      
7       3       0       3       2       3       18      19      26      
9       6       2       3       0       3       21      22      28      
2       0       7       3       3       2       19      25      
1       0       3       4       5       1       20      
2       6       5       2       0       1       21      
5       0       9       4       4       1       21      
4       4       0       1       3       1       24      
9       0       4       6       8       1       24      
9       0       5       9       2       1       25      
1       3       0       6       3       1       32      
10      0       9       5       3       1       32      
2       1       3       0       4       1       32      
1       3       0       6       4       1       32      
6       5       2       0       4       1       32      
8       6       3       0       4       1       32      
6       7       5       3       0       1       32      
3       0       4       4       4       1       32      
0       0       0       0       0       0       
